14,8	0,0	12,5	9,9	0,0	0,0	0,0	0,0	0,0	11,8
12,7	18,6	0,0	12,0	15,1	0,0	0,0	15,3	0,0	0,0
0,0	0,0	7,6	0,0	5,6	8,5	0,0	0,0	9,4	0,0
19,3	0,0	17,6	0,0	0,0	0,0	10,7	0,0	0,0	0,0
0,0	13,5	0,0	7,6	13,9	0,0	0,0	8,7	0,0	0,0
0,0	14,8	10,9	0,0	6,9	14,4	0,0	0,0	8,8	0,0
0,0	14,8	0,0	18,7	0,0	0,0	19,2	0,0	0,0	5,3
5,3	0,0	11,6	0,0	0,0	0,0	0,0	0,0	0,0	13,4
0,0	8,9	0,0	9,8	9,0	0,0	0,0	17,9	0,0	0,0
0,0	0,0	10,3	0,0	0,0	7,6	5,1	0,0	0,0	10,2
									
4,0	3,6	4,1	3,0	3,9	2,6	4,7	2,7	3,7	3,1
